benchmarks/result/bug1.output
sat
(model
  (define-fun x0 () String
    "baa")
  (define-fun x1 () String
    "a")
  (define-fun x2 () String
    "baa")
)
